p edge 20 44
e 1 2
e 1 6
e 1 9
e 1 14
e 1 19
e 2 5
e 2 6
e 2 9
e 2 13
e 2 20
e 3 5
e 3 8
e 4 11
e 5 6
e 5 10
e 5 14
e 5 17
e 6 7
e 6 8
e 6 9
e 6 11
e 6 14
e 6 15
e 6 17
e 6 18
e 6 19
e 7 10
e 7 14
e 7 16
e 8 9
e 8 16
e 9 11
e 9 12
e 9 14
e 11 20
e 12 17
e 12 20
e 14 16
e 14 20
e 15 20
e 16 18
e 16 19
e 17 18
e 17 20
